r = [
0,123,76,173,142,114,170,184,77,215,129,70,99,106,8,67,11,132,40,50,124,211,151,190,163,123,0
];
p = [
0,6,17,18,11,20,15,25,29,10,14,2,8,27,7,17,10,13,30,12,24,24,10,30,20,30,0
];
e = [
0,14,4,16,8,4,15,17,7,6,12,14,19,17,5,1,4,18,3,3,8,15,17,13,7,7,0
];
d = [
0,218,365,314,255,349,359,542,170,254,534,210,388,215,136,335,63,422,200,258,234,454,489,290,520,431,565
];
d_bar = [
0,223,380,330,265,367,373,565,196,263,547,212,395,239,142,350,72,434,227,269,256,476,498,317,538,458,565
];
w = [
0,2.8,0.266666667,1,0.8,0.222222222,1.071428571,0.739130435,0.269230769,0.666666667,0.923076923,7,2.714285714,0.708333333,0.833333333,0.066666667,0.444444444,1.5,0.111111111,0.272727273,0.363636364,0.681818182,1.888888889,0.481481481,0.388888889,0.259259259,0
];
